Instance name: /mnt/c/Users/ORG/CLionProjects/uMV-FSTSP/Murray_Chu_2015_test_data/FSTSP/FSTSP_10_customer_problems/20140810T123443v2

drone speed: 0.2 miles/minute
uav non-eligible customer: 4 8 
Printing number of nodes: 11

Gurobi Optimizer version 11.0.0 build v11.0.0rc2 (linux64 - "Ubuntu 22.04.3 LTS")

CPU model: 13th Gen Intel(R) Core(TM) i5-13500, instruction set [SSE2|AVX|AVX2]
Thread count: 10 physical cores, 20 logical processors, using up to 20 threads

Optimize a model with 44651 rows, 1957 columns and 1837624 nonzeros
Model fingerprint: 0x2d6825a6
Variable types: 11 continuous, 1946 integer (1814 binary)
Coefficient statistics:
  Matrix range     [1e+00, 3e+01]
  Objective range  [1e+00, 3e+01]
  Bounds range     [1e+00, 1e+00]
  RHS range        [1e+00, 9e+00]
Found heuristic solution: objective 171.9821981
Presolve removed 38668 rows and 1393 columns
Presolve time: 2.10s
Presolved: 5983 rows, 564 columns, 143882 nonzeros
Variable types: 6 continuous, 558 integer (558 binary)
Found heuristic solution: objective 148.7227818

Root relaxation: objective 7.214647e+01, 131 iterations, 0.03 seconds (0.05 work units)

    Nodes    |    Current Node    |     Objective Bounds      |     Work
 Expl Unexpl |  Obj  Depth IntInf | Incumbent    BestBd   Gap | It/Node Time

*    0     0               0      72.1464732   72.14647  0.00%     -    2s

Explored 1 nodes (131 simplex iterations) in 2.18 seconds (3.97 work units)
Thread count was 20 (of 20 available processors)

Solution count 3: 72.1465 148.723 171.982 

Optimal solution found (tolerance 1.00e-04)
Best objective 7.214647322300e+01, best bound 7.214647322300e+01, gap 0.0000%
Truck arcs: 
0 8 4.27959
1 2 8.59672
2 5 8.42508
3 9 5.1822
4 10 10.5327
5 6 0.968346
6 7 6.70095
7 4 7.34864
8 1 3.32128
9 11 6.76674
10 3 10.0243
Theta:
Drone arcs:
Gamma:
Sigma:
Sigma_1 = 0
Sigma_2 = 0
Sigma_3 = 0
Sigma_4 = 0
Sigma_5 = 0
Sigma_6 = 0
Sigma_7 = 0
Sigma_8 = 0
Sigma_9 = 0
Sigma_10 = 0
Sigma_11 = 0
Objective: 72.1465
Number of sorties: 0
